PRISONER = {P1, P2, P3, P4, P5, P6, P7, P8, P9, P10};

n =4 ;
m = 6;

cost = [|2, 4, 3, 5, 1, 6 | 6, 2, 3, 1, 5, 4 | 3, 5, 6, 4, 2, 1 | 1, 2, 6, 4, 5, 3|];

danger = {P1, P4, P8};
female = {P1, P6, P7, P10};
